
Gurobi 11.0.3 (linux64) logging started Sat Jan 18 16:21:10 2025

Set parameter LogFile to value "/home/bjoern/git/pypsa-eur/results/128_wAT_entsoe/logs/solve_network/base_s_128_elec_lvopt__solver.log"
Gurobi Optimizer version 11.0.3 build v11.0.3rc0 (linux64 - "Ubuntu 24.04.1 LTS")

CPU model: Intel(R) Core(TM) i9-10850K CPU @ 3.60GHz, instruction set [SSE2|AVX|AVX2]
Thread count: 10 physical cores, 20 logical processors, using up to 8 threads

Academic license 2518566 - for non-commercial use only - registered to bj___@stud.unileoben.ac.at
Optimize a model with 57442096 rows, 24818764 columns and 122179236 nonzeros
Model fingerprint: 0xf988e78b
Coefficient statistics:
  Matrix range     [1e-02, 3e+02]
  Objective range  [9e-03, 3e+05]
  Bounds range     [9e-02, 7e+10]
  RHS range        [9e-02, 4e+07]
Warning: Model contains large bounds
         Consider reformulating model or setting NumericFocus parameter
         to avoid numerical issues.
Presolve removed 0 rows and 0 columns (presolve time = 5s) ...
Presolve removed 27006864 rows and 2250843 columns (presolve time = 17s) ...
Presolve removed 27006864 rows and 2250843 columns (presolve time = 21s) ...
Presolve removed 27006864 rows and 2250843 columns (presolve time = 25s) ...
Presolve removed 27006864 rows and 2250843 columns (presolve time = 30s) ...
Presolve removed 27016021 rows and 2260000 columns (presolve time = 37s) ...
Presolve removed 29424752 rows and 4668731 columns (presolve time = 40s) ...
Presolve removed 29424752 rows and 4668731 columns (presolve time = 47s) ...
Presolve removed 29424752 rows and 4668731 columns (presolve time = 51s) ...
Presolve removed 29424752 rows and 4668731 columns (presolve time = 58s) ...
Presolve removed 29424752 rows and 4668731 columns (presolve time = 65s) ...
Presolve removed 29424752 rows and 4668731 columns (presolve time = 71s) ...
Presolve removed 29424752 rows and 4668731 columns (presolve time = 80s) ...
Presolve removed 29424752 rows and 4668731 columns (presolve time = 80s) ...
Presolve removed 29424752 rows and 4668731 columns (presolve time = 86s) ...
Presolve removed 29424752 rows and 4668731 columns (presolve time = 90s) ...
Presolve removed 29424752 rows and 4668731 columns (presolve time = 96s) ...
Presolve removed 29424752 rows and 4668731 columns (presolve time = 103s) ...
Presolve removed 29424752 rows and 4668731 columns
Presolve time: 104.95s
Presolved: 28017344 rows, 20150033 columns, 87308372 nonzeros
Elapsed ordering time = 52s
Elapsed ordering time = 58s
Elapsed ordering time = 60s
Elapsed ordering time = 65s
Elapsed ordering time = 70s
Elapsed ordering time = 75s
Elapsed ordering time = 80s
Elapsed ordering time = 85s
Elapsed ordering time = 90s
Elapsed ordering time = 95s
Elapsed ordering time = 100s
Elapsed ordering time = 105s
Elapsed ordering time = 206s
Elapsed ordering time = 245s
Elapsed ordering time = 275s
Elapsed ordering time = 294s
Elapsed ordering time = 302s
Elapsed ordering time = 318s
Elapsed ordering time = 326s
Elapsed ordering time = 334s
Elapsed ordering time = 339s
Elapsed ordering time = 341s
Elapsed ordering time = 347s
Elapsed ordering time = 352s
Elapsed ordering time = 357s
Elapsed ordering time = 361s
Elapsed ordering time = 365s
Elapsed ordering time = 370s
Elapsed ordering time = 376s
Elapsed ordering time = 380s
Elapsed ordering time = 385s
Elapsed ordering time = 390s
Elapsed ordering time = 395s
Elapsed ordering time = 400s
Elapsed ordering time = 405s
Elapsed ordering time = 410s
Elapsed ordering time = 415s
Elapsed ordering time = 421s
Elapsed ordering time = 425s
Elapsed ordering time = 440s
Elapsed ordering time = 440s
Elapsed ordering time = 445s
Elapsed ordering time = 450s
Elapsed ordering time = 455s
Elapsed ordering time = 460s
Elapsed ordering time = 465s
Elapsed ordering time = 470s
Elapsed ordering time = 475s
Elapsed ordering time = 480s
Elapsed ordering time = 485s
Elapsed ordering time = 490s
Elapsed ordering time = 495s
Elapsed ordering time = 500s
Elapsed ordering time = 505s
Elapsed ordering time = 510s
Elapsed ordering time = 515s
Elapsed ordering time = 520s
Elapsed ordering time = 525s
Elapsed ordering time = 530s
Elapsed ordering time = 535s
Elapsed ordering time = 540s
Elapsed ordering time = 545s
Elapsed ordering time = 746s
Elapsed ordering time = 781s
Elapsed ordering time = 814s
Elapsed ordering time = 824s
Elapsed ordering time = 839s
Elapsed ordering time = 850s
Elapsed ordering time = 864s
Elapsed ordering time = 869s
Elapsed ordering time = 873s
Elapsed ordering time = 877s
Elapsed ordering time = 884s
Elapsed ordering time = 890s
Elapsed ordering time = 893s
Elapsed ordering time = 896s
Elapsed ordering time = 900s
Elapsed ordering time = 905s
Elapsed ordering time = 913s
Elapsed ordering time = 915s
Elapsed ordering time = 921s
Elapsed ordering time = 925s
Elapsed ordering time = 930s
Elapsed ordering time = 935s
Elapsed ordering time = 940s
Elapsed ordering time = 945s
Elapsed ordering time = 950s
Elapsed ordering time = 955s
Elapsed ordering time = 960s
Elapsed ordering time = 974s
Elapsed ordering time = 975s
Elapsed ordering time = 980s
Elapsed ordering time = 985s
Elapsed ordering time = 990s
Elapsed ordering time = 995s
Elapsed ordering time = 1000s
Elapsed ordering time = 1005s
Elapsed ordering time = 1010s
Elapsed ordering time = 1015s
Elapsed ordering time = 1020s
Elapsed ordering time = 1025s
Elapsed ordering time = 1030s
Elapsed ordering time = 1035s
Elapsed ordering time = 1040s
Elapsed ordering time = 1045s
Elapsed ordering time = 1050s
Elapsed ordering time = 1055s
Elapsed ordering time = 1060s
Elapsed ordering time = 1065s
Elapsed ordering time = 1070s
Elapsed ordering time = 1075s
Elapsed ordering time = 1081s
Ordering time: 1204.04s

Barrier statistics:
 Dense cols : 1549
 AA' NZ     : 1.315e+08
 Factor NZ  : 2.415e+09 (roughly 40.0 GB of memory)
 Factor Ops : 6.137e+12 (roughly 27 seconds per iteration)
 Threads    : 8

                  Objective                Residual
Iter       Primal          Dual         Primal    Dual     Compl     Time
   0   3.29797564e+13 -1.92217038e+17  1.83e+06 2.27e+02  2.10e+10  1443s
   1   3.75566682e+13 -8.92995347e+16  1.66e+06 4.29e+04  1.30e+10  1480s
   2   4.15123257e+13 -4.61453322e+16  1.43e+06 3.30e+04  8.88e+09  1516s
   3   4.01036804e+13 -2.46020852e+16  9.82e+05 5.58e+06  5.56e+09  1554s
   4   3.78490587e+13 -1.68007739e+16  4.83e+05 9.40e+05  2.79e+09  1595s
   5   3.57278873e+13 -1.15974018e+16  1.86e+05 3.32e+05  1.14e+09  1641s
   6   3.67782902e+13 -7.64444129e+15  5.85e+04 1.59e+06  4.12e+08  1684s
   7   3.63385130e+13 -3.98447070e+15  1.28e+04 4.20e+05  1.27e+08  1727s
   8   3.04370368e+13 -1.06002217e+15  4.08e+03 4.25e+05  3.03e+07  1766s
   9   1.61670584e+13 -5.17290844e+14  1.37e+03 2.89e+05  1.23e+07  1798s
  10   9.49826770e+12 -2.64952641e+14  6.40e+02 1.40e+05  5.84e+06  1829s
  11   6.67319067e+12 -8.15450869e+13  1.74e+02 3.82e+04  1.83e+06  1871s
  12   3.77864107e+12 -3.13607934e+13  4.44e+01 1.35e+04  7.19e+05  1917s
  13   2.48397148e+12 -1.56393515e+13  1.87e+01 6.59e+03  3.68e+05  1968s
  14   2.00811438e+12 -8.76550665e+12  1.34e+01 3.86e+03  2.19e+05  2015s
  15   1.66022323e+12 -4.26135073e+12  9.89e+00 1.92e+03  1.20e+05  2056s
  16   1.37106218e+12 -3.00192395e+12  7.61e+00 1.34e+03  8.83e+04  2093s
  17   1.05826045e+12 -1.61857585e+12  5.39e+00 7.48e+02  5.39e+04  2135s
  18   8.02799604e+11 -9.53759746e+11  3.85e+00 4.58e+02  3.53e+04  2181s
  19   6.67597978e+11 -4.74269698e+11  3.11e+00 2.29e+02  2.29e+04  2232s
  20   5.09313154e+11 -2.36042065e+11  2.35e+00 1.05e+02  1.49e+04  2289s
  21   3.77780280e+11 -1.04239077e+11  1.70e+00 4.44e+01  9.61e+03  2340s
  22   3.07628972e+11 -5.23084025e+10  1.36e+00 2.61e+01  7.17e+03  2386s
  23   2.55203075e+11 -3.57742438e+10  1.11e+00 2.03e+01  5.79e+03  2428s
  24   2.46539538e+11 -2.15400861e+10  1.06e+00 1.58e+01  5.34e+03  2465s
  25   2.10477294e+11 -1.06059311e+10  8.85e-01 1.24e+01  4.40e+03  2506s
  26   1.67094767e+11  6.88757348e+09  6.62e-01 7.32e+00  3.19e+03  2553s
  27   1.37823718e+11  1.84188605e+10  5.14e-01 4.43e+00  2.38e+03  2604s
  28   1.12124886e+11  2.68459318e+10  3.80e-01 2.50e+00  1.70e+03  2660s
  29   9.62028496e+10  3.33825325e+10  2.98e-01 1.17e+00  1.25e+03  2717s
  30   8.34421695e+10  3.58509697e+10  2.34e-01 7.52e-01  9.46e+02  2768s
  31   7.61498017e+10  3.73421316e+10  1.94e-01 5.49e-01  7.72e+02  2814s
  32   7.21104416e+10  3.82755151e+10  1.71e-01 4.29e-01  6.73e+02  2856s
  33   6.71071749e+10  3.91976240e+10  1.45e-01 3.20e-01  5.55e+02  2902s
  34   6.25000558e+10  4.01019633e+10  1.20e-01 2.17e-01  4.45e+02  2953s
  35   5.89033167e+10  4.08522194e+10  9.93e-02 1.47e-01  3.59e+02  3010s
  36   5.52448342e+10  4.13001344e+10  7.95e-02 1.11e-01  2.77e+02  3066s
  37   5.26333957e+10  4.15840819e+10  6.30e-02 8.53e-02  2.20e+02  3123s
  38   5.04081488e+10  4.19481713e+10  4.99e-02 5.78e-02  1.68e+02  3180s
  39   4.90635486e+10  4.21722078e+10  4.17e-02 4.20e-02  1.37e+02  3237s
  40   4.75303326e+10  4.23351430e+10  3.25e-02 3.16e-02  1.03e+02  3293s
  41   4.66479216e+10  4.24647266e+10  2.66e-02 2.39e-02  8.32e+01  3350s
  42   4.59885302e+10  4.25566530e+10  2.22e-02 1.90e-02  6.82e+01  3407s
  43   4.52241057e+10  4.26261667e+10  1.69e-02 1.53e-02  5.17e+01  3463s
  44   4.48387860e+10  4.26549030e+10  1.41e-02 1.38e-02  4.34e+01  3520s
  45   4.46384114e+10  4.27096621e+10  1.27e-02 1.13e-02  3.84e+01  3576s
  46   4.43619055e+10  4.27645698e+10  1.08e-02 8.95e-03  3.18e+01  3633s
  47   4.41755167e+10  4.27957892e+10  9.45e-03 7.51e-03  2.74e+01  3685s
  48   4.40358063e+10  4.28049581e+10  8.38e-03 7.10e-03  2.45e+01  3737s
  49   4.38988337e+10  4.28330505e+10  7.38e-03 5.83e-03  2.12e+01  3794s
  50   4.37806890e+10  4.28576287e+10  6.52e-03 4.75e-03  1.84e+01  3846s
  51   4.37291060e+10  4.28675983e+10  6.10e-03 4.34e-03  1.71e+01  3888s
  52   4.36048857e+10  4.28893279e+10  5.19e-03 3.40e-03  1.42e+01  3945s
  53   4.35237374e+10  4.29010990e+10  4.58e-03 2.89e-03  1.24e+01  3997s
  54   4.34423123e+10  4.29156225e+10  3.96e-03 2.28e-03  1.05e+01  4054s
  55   4.33637371e+10  4.29247218e+10  3.36e-03 1.90e-03  8.73e+00  4111s
  56   4.33100278e+10  4.29316384e+10  2.94e-03 1.62e-03  7.52e+00  4162s
  57   4.32614711e+10  4.29375627e+10  2.54e-03 1.40e-03  6.44e+00  4222s
  58   4.32190335e+10  4.29428498e+10  2.20e-03 1.19e-03  5.49e+00  4279s
  59   4.31901540e+10  4.29489062e+10  1.96e-03 9.49e-04  4.80e+00  4336s
  60   4.31500451e+10  4.29534934e+10  1.64e-03 7.77e-04  3.91e+00  4392s
  61   4.31256227e+10  4.29556009e+10  1.43e-03 6.99e-04  3.38e+00  4449s
  62   4.31034254e+10  4.29582107e+10  1.25e-03 6.03e-04  2.89e+00  4506s
  63   4.30860609e+10  4.29619217e+10  1.09e-03 4.69e-04  2.47e+00  4562s
  64   4.30705734e+10  4.29643140e+10  9.34e-04 3.84e-04  2.11e+00  4614s
  65   4.30630670e+10  4.29654961e+10  8.62e-04 3.42e-04  1.94e+00  4666s
  66   4.30486326e+10  4.29664920e+10  7.25e-04 3.07e-04  1.63e+00  4723s
  67   4.30341017e+10  4.29675902e+10  5.90e-04 2.69e-04  1.32e+00  4779s
  68   4.30291420e+10  4.29689139e+10  5.43e-04 2.24e-04  1.20e+00  4836s
  69   4.30269434e+10  4.29696173e+10  5.22e-04 2.01e-04  1.14e+00  4893s
  70   4.30150411e+10  4.29707068e+10  4.07e-04 1.64e-04  8.82e-01  4949s
  71   4.30095249e+10  4.29716975e+10  3.52e-04 1.32e-04  7.52e-01  5006s
  72   4.30055769e+10  4.29722563e+10  3.12e-04 1.14e-04  6.63e-01  5053s
  73   4.30019408e+10  4.29725589e+10  2.74e-04 1.05e-04  5.84e-01  5110s
  74   4.29996964e+10  4.29730071e+10  2.53e-04 9.05e-05  5.31e-01  5166s
  75   4.29954722e+10  4.29735599e+10  2.10e-04 7.34e-05  4.36e-01  5223s
  76   4.29939466e+10  4.29738709e+10  1.94e-04 6.39e-05  3.99e-01  5278s
  77   4.29928179e+10  4.29740695e+10  1.82e-04 5.83e-05  3.73e-01  5329s
  78   4.29906687e+10  4.29742701e+10  1.61e-04 5.22e-05  3.26e-01  5392s
  79   4.29873862e+10  4.29745579e+10  1.24e-04 4.26e-05  2.55e-01  5454s
  80   4.29851285e+10  4.29749696e+10  1.00e-04 3.07e-05  2.02e-01  5517s
  81   4.29837883e+10  4.29751108e+10  8.52e-05 2.67e-05  1.73e-01  5580s
  82   4.29827027e+10  4.29753693e+10  7.38e-05 2.00e-05  1.46e-01  5643s
  83   4.29814783e+10  4.29754878e+10  6.05e-05 1.66e-05  1.19e-01  5703s
  84   4.29808689e+10  4.29755772e+10  5.36e-05 1.41e-05  1.05e-01  5753s
  85   4.29800231e+10  4.29756600e+10  5.08e-05 1.17e-05  8.68e-02  5816s
  86   4.29794113e+10  4.29757595e+10  4.11e-05 9.01e-06  7.26e-02  5879s
  87   4.29789077e+10  4.29758241e+10  3.73e-05 7.33e-06  6.13e-02  5942s
  88   4.29788151e+10  4.29758365e+10  3.59e-05 7.04e-06  5.93e-02  6000s
  89   4.29784306e+10  4.29758837e+10  3.09e-05 5.84e-06  5.07e-02  6058s
  90   4.29780737e+10  4.29759115e+10  2.62e-05 5.14e-06  4.30e-02  6130s
  91   4.29775563e+10  4.29759458e+10  2.05e-05 4.22e-06  3.20e-02  6193s
  92   4.29773397e+10  4.29759726e+10  1.72e-05 3.59e-06  2.72e-02  6255s
  93   4.29771406e+10  4.29759926e+10  1.57e-05 3.12e-06  2.28e-02  6321s
  94   4.29769056e+10  4.29760245e+10  1.13e-05 2.39e-06  1.75e-02  6379s
  95   4.29767958e+10  4.29760521e+10  9.71e-06 1.77e-06  1.48e-02  6454s
  96   4.29766765e+10  4.29760703e+10  7.94e-06 1.37e-06  1.21e-02  6529s
  97   4.29765640e+10  4.29760793e+10  6.31e-06 1.17e-06  9.64e-03  6604s
  98   4.29764844e+10  4.29760926e+10  5.15e-06 8.90e-07  7.79e-03  6683s
  99   4.29764312e+10  4.29760952e+10  4.37e-06 8.36e-07  6.68e-03  6746s
 100   4.29763782e+10  4.29761055e+10  2.76e-04 6.40e-07  5.42e-03  6827s
 101   4.29763207e+10  4.29761106e+10  2.12e-04 5.33e-07  4.18e-03  6906s
 102   4.29763046e+10  4.29761150e+10  1.94e-04 4.45e-07  3.77e-03  6969s
 103   4.29762903e+10  4.29761197e+10  1.80e-04 3.57e-07  3.39e-03  7050s
 104   4.29762656e+10  4.29761245e+10  1.71e-04 2.60e-07  2.81e-03  7128s
 105   4.29762350e+10  4.29761276e+10  1.30e-04 1.99e-07  2.14e-03  7203s

Barrier solved model in 105 iterations and 7203.26 seconds (7132.33 work units)
Optimal objective 4.29762350e+10

